[420, 440, 408, 328, 294, 176, 154, 112, 102, 102, 92, 82, 80, 80, 78, 66, 72, 72, 66, 64, 68, 72, 66, 66, 64, 64, 64, 64, 64, 64, 64, 66, 64, 64, 64, 64, 64, 64, 64, 64, 64, 64, 64, 64, 66, 64, 64, 64, 64, 64, 64, 64, 64, 64, 66, 66, 66, 66, 66, 66, 66, 66, 66, 66, 66, 66, 64, 64, 64, 64, 64, 64, 64, 64, 64, 66, 64, 64, 66, 64, 64, 66, 66, 66, 66, 66, 66, 66, 66, 66, 66, 66, 66, 66, 66, 66, 66, 66, 66, 66, 64, 64, 64, 64, 64, 64, 64, 64, 64, 64, 64, 64, 64, 64, 64, 64, 64, 64, 64, 64, 64, 64, 64, 64, 64, 64, 64, 64, 66, 64, 64, 64, 64, 66, 66, 66, 66, 66, 66, 66, 64, 64, 64, 64, 64, 64, 64, 64, 64, 64, 64, 64, 64, 64, 64, 64, 64, 64, 64, 64, 64, 64, 64, 64, 64, 64, 64, 64, 64, 64, 64, 64, 64, 64, 64, 64, 64, 64, 64, 64, 64, 64, 64, 64, 64, 64, 64, 64, 64, 64, 64, 64, 64, 64, 64, 64, 64, 64, 64, 64]